DIMENSION: 202
202
195
196
183
182
179
181
180
194
193
198
191
192
190
188
187
150
149
147
145
144
143
186
136
175
176
189
177
178
172
174
173
171
163
159
81
82
79
77
78
80
90
91
157
158
162
161
166
160
165
164
169
170
135
134
168
167
125
116
115
117
156
102
101
114
113
122
126
132
133
184
185
141
140
139
138
142
131
124
121
123
120
119
104
111
110
109
108
107
99
112
100
98
94
88
89
87
85
84
83
86
92
93
97
96
95
50
106
46
49
48
47
45
44
43
35
36
42
41
105
103
118
40
38
39
130
37
28
27
29
128
127
129
137
24
23
22
21
15
13
14
7
6
8
4
5
2
3
16
1
75
76
76
74
68
73
70
69
71
72
64
67
66
65
63
59
58
62
61
60
57
56
34
53
52
55
54
51
30
31
32
33
26
20
12
19
11
17
9
10
18
146
25
148
154
155
153
152
151
197
199
200
201
